set F_UNIQ := 6 9 12 15;
set F_NODES[6] := 6 7 8;
set F_NODES[9] := 9 10 11;
set F_NODES[12] := 12 13 14;
set F_NODES[15] := 15 16 17;
#definition

# set
set V := 1 2 3 4 5 ; 	# customer set
set F := 6 9 12 15 7 8 10 11 13 14 16 17 ;#recharging & battery swapping station
set D0 :=0;
set Dsig :=18;


# param
param CV := 200;    		# ECV fixed cost(Topic Given)
param C := 200;   		# ECV max load
param Q := 77.75; 		# ECV/BSV battery level
param h := 1;     		# ECV consumption

param CB := 267;    		# BSV fixed cost(Topic Given)
param Qplun := 5;       # BSV max load(battery)
param hplun := 1;     	# BSV consumption
param W := 155.50;		# BSV battery level

param Ct := 10;    		# travel cost
param Cr := 100;    		# recharging cost
param lamda := 0.00;	# battery swap time
param Cb ;  	    # battery swap cost(BSS/BSV)
param n :=5;	   		# number of customers
param g :=1.17 ;     	# the recharging rate of ECV 



# customer demend
param m :=
0 0
1 30
2 10
3 35
4 14
5 20
6 0
9 0
12 0
15 0
7 0
8 0
10 0
11 0
13 0
14 0
16 0
17 0
18 0;

param e :=
0 0
1 83
2 45
3 104
4 30
5 39
6 0
9 0
12 0
15 0
7 0
8 0
10 0
11 0
13 0
14 0
16 0
17 0
18 0;

param l :=
0 240
1 168
2 161
3 165
4 129
5 163
6 240
9 240
12 240
15 240
7 240
8 240
10 240
11 240
13 240
14 240
16 240
17 240
18 240;

param s :=
0 0
1 10
2 10
3 10
4 10
5 10
6 0
9 0
12 0
15 0
7 0
8 0
10 0
11 0
13 0
14 0
16 0
17 0
18 0;

param d : 0 1 2 3 4 5 6 9 12 15 7 8 10 11 13 14 16 17 18 :=
0 0.0000 47.4342 45.0000 48.1664 25.4951 39.2938 0.0000 37.2022 42.0595 42.0595 0.0000 0.0000 37.2022 37.2022 42.0595 42.0595 42.0595 42.0595 0.0000
1 47.4342 0.0000 54.0833 82.7647 28.2843 83.1505 47.4342 75.3260 63.1585 9.4340 47.4342 47.4342 75.3260 75.3260 63.1585 63.1585 9.4340 9.4340 47.4342
2 45.0000 54.0833 0.0000 38.2753 55.9017 51.6624 45.0000 37.8021 13.9284 44.6542 45.0000 45.0000 37.8021 37.8021 13.9284 13.9284 44.6542 44.6542 45.0000
3 48.1664 82.7647 38.2753 0.0000 71.3442 22.0907 48.1664 11.6619 24.3516 73.9797 48.1664 48.1664 11.6619 11.6619 24.3516 24.3516 73.9797 73.9797 48.1664
4 25.4951 28.2843 55.9017 71.3442 0.0000 64.7611 25.4951 61.2699 58.8982 27.7308 25.4951 25.4951 61.2699 61.2699 58.8982 58.8982 27.7308 27.7308 25.4951
5 39.2938 83.1505 51.6624 22.0907 64.7611 0.0000 39.2938 14.4222 39.0512 75.6637 39.2938 39.2938 14.4222 14.4222 39.0512 39.0512 75.6637 75.6637 39.2938
6 0.0000 47.4342 45.0000 48.1664 25.4951 39.2938 0.0000 37.2022 42.0595 42.0595 0.0000 0.0000 37.2022 37.2022 42.0595 42.0595 42.0595 42.0595 0.0000
9 37.2022 75.3260 37.8021 11.6619 61.2699 14.4222 37.2022 0.0000 24.7588 67.0298 37.2022 37.2022 0.0000 0.0000 24.7588 24.7588 67.0298 67.0298 37.2022
12 42.0595 63.1585 13.9284 24.3516 58.8982 39.0512 42.0595 24.7588 0.0000 53.8516 42.0595 42.0595 24.7588 24.7588 0.0000 0.0000 53.8516 53.8516 42.0595
15 42.0595 9.4340 44.6542 73.9797 27.7308 75.6637 42.0595 67.0298 53.8516 0.0000 42.0595 42.0595 67.0298 67.0298 53.8516 53.8516 0.0000 0.0000 42.0595
7 0.0000 47.4342 45.0000 48.1664 25.4951 39.2938 0.0000 37.2022 42.0595 42.0595 0.0000 0.0000 37.2022 37.2022 42.0595 42.0595 42.0595 42.0595 0.0000
8 0.0000 47.4342 45.0000 48.1664 25.4951 39.2938 0.0000 37.2022 42.0595 42.0595 0.0000 0.0000 37.2022 37.2022 42.0595 42.0595 42.0595 42.0595 0.0000
10 37.2022 75.3260 37.8021 11.6619 61.2699 14.4222 37.2022 0.0000 24.7588 67.0298 37.2022 37.2022 0.0000 0.0000 24.7588 24.7588 67.0298 67.0298 37.2022
11 37.2022 75.3260 37.8021 11.6619 61.2699 14.4222 37.2022 0.0000 24.7588 67.0298 37.2022 37.2022 0.0000 0.0000 24.7588 24.7588 67.0298 67.0298 37.2022
13 42.0595 63.1585 13.9284 24.3516 58.8982 39.0512 42.0595 24.7588 0.0000 53.8516 42.0595 42.0595 24.7588 24.7588 0.0000 0.0000 53.8516 53.8516 42.0595
14 42.0595 63.1585 13.9284 24.3516 58.8982 39.0512 42.0595 24.7588 0.0000 53.8516 42.0595 42.0595 24.7588 24.7588 0.0000 0.0000 53.8516 53.8516 42.0595
16 42.0595 9.4340 44.6542 73.9797 27.7308 75.6637 42.0595 67.0298 53.8516 0.0000 42.0595 42.0595 67.0298 67.0298 53.8516 53.8516 0.0000 0.0000 42.0595
17 42.0595 9.4340 44.6542 73.9797 27.7308 75.6637 42.0595 67.0298 53.8516 0.0000 42.0595 42.0595 67.0298 67.0298 53.8516 53.8516 0.0000 0.0000 42.0595
18 0.0000 47.4342 45.0000 48.1664 25.4951 39.2938 0.0000 37.2022 42.0595 42.0595 0.0000 0.0000 37.2022 37.2022 42.0595 42.0595 42.0595 42.0595 0.0000
;

param t : 0 1 2 3 4 5 6 9 12 15 7 8 10 11 13 14 16 17 18 :=
0 0.0000 47.4342 45.0000 48.1664 25.4951 39.2938 0.0000 37.2022 42.0595 42.0595 0.0000 0.0000 37.2022 37.2022 42.0595 42.0595 42.0595 42.0595 0.0000
1 47.4342 0.0000 54.0833 82.7647 28.2843 83.1505 47.4342 75.3260 63.1585 9.4340 47.4342 47.4342 75.3260 75.3260 63.1585 63.1585 9.4340 9.4340 47.4342
2 45.0000 54.0833 0.0000 38.2753 55.9017 51.6624 45.0000 37.8021 13.9284 44.6542 45.0000 45.0000 37.8021 37.8021 13.9284 13.9284 44.6542 44.6542 45.0000
3 48.1664 82.7647 38.2753 0.0000 71.3442 22.0907 48.1664 11.6619 24.3516 73.9797 48.1664 48.1664 11.6619 11.6619 24.3516 24.3516 73.9797 73.9797 48.1664
4 25.4951 28.2843 55.9017 71.3442 0.0000 64.7611 25.4951 61.2699 58.8982 27.7308 25.4951 25.4951 61.2699 61.2699 58.8982 58.8982 27.7308 27.7308 25.4951
5 39.2938 83.1505 51.6624 22.0907 64.7611 0.0000 39.2938 14.4222 39.0512 75.6637 39.2938 39.2938 14.4222 14.4222 39.0512 39.0512 75.6637 75.6637 39.2938
6 0.0000 47.4342 45.0000 48.1664 25.4951 39.2938 0.0000 37.2022 42.0595 42.0595 0.0000 0.0000 37.2022 37.2022 42.0595 42.0595 42.0595 42.0595 0.0000
9 37.2022 75.3260 37.8021 11.6619 61.2699 14.4222 37.2022 0.0000 24.7588 67.0298 37.2022 37.2022 0.0000 0.0000 24.7588 24.7588 67.0298 67.0298 37.2022
12 42.0595 63.1585 13.9284 24.3516 58.8982 39.0512 42.0595 24.7588 0.0000 53.8516 42.0595 42.0595 24.7588 24.7588 0.0000 0.0000 53.8516 53.8516 42.0595
15 42.0595 9.4340 44.6542 73.9797 27.7308 75.6637 42.0595 67.0298 53.8516 0.0000 42.0595 42.0595 67.0298 67.0298 53.8516 53.8516 0.0000 0.0000 42.0595
7 0.0000 47.4342 45.0000 48.1664 25.4951 39.2938 0.0000 37.2022 42.0595 42.0595 0.0000 0.0000 37.2022 37.2022 42.0595 42.0595 42.0595 42.0595 0.0000
8 0.0000 47.4342 45.0000 48.1664 25.4951 39.2938 0.0000 37.2022 42.0595 42.0595 0.0000 0.0000 37.2022 37.2022 42.0595 42.0595 42.0595 42.0595 0.0000
10 37.2022 75.3260 37.8021 11.6619 61.2699 14.4222 37.2022 0.0000 24.7588 67.0298 37.2022 37.2022 0.0000 0.0000 24.7588 24.7588 67.0298 67.0298 37.2022
11 37.2022 75.3260 37.8021 11.6619 61.2699 14.4222 37.2022 0.0000 24.7588 67.0298 37.2022 37.2022 0.0000 0.0000 24.7588 24.7588 67.0298 67.0298 37.2022
13 42.0595 63.1585 13.9284 24.3516 58.8982 39.0512 42.0595 24.7588 0.0000 53.8516 42.0595 42.0595 24.7588 24.7588 0.0000 0.0000 53.8516 53.8516 42.0595
14 42.0595 63.1585 13.9284 24.3516 58.8982 39.0512 42.0595 24.7588 0.0000 53.8516 42.0595 42.0595 24.7588 24.7588 0.0000 0.0000 53.8516 53.8516 42.0595
16 42.0595 9.4340 44.6542 73.9797 27.7308 75.6637 42.0595 67.0298 53.8516 0.0000 42.0595 42.0595 67.0298 67.0298 53.8516 53.8516 0.0000 0.0000 42.0595
17 42.0595 9.4340 44.6542 73.9797 27.7308 75.6637 42.0595 67.0298 53.8516 0.0000 42.0595 42.0595 67.0298 67.0298 53.8516 53.8516 0.0000 0.0000 42.0595
18 0.0000 47.4342 45.0000 48.1664 25.4951 39.2938 0.0000 37.2022 42.0595 42.0595 0.0000 0.0000 37.2022 37.2022 42.0595 42.0595 42.0595 42.0595 0.0000
;